p cnf 41 59
-35 12 0 
-8 39 0 
-20 5 0 
-19 3 0 
-39 8 12 0 
-38 11 0 
-10 21 0 
-28 6 17 0 
-25 12 0 
-17 31 0 
-10 37 0 
-36 2 0 
-37 10 0 
-16 34 0 
-34 16 0 
-4 41 0 
-12 39 0 
-17 28 0 
-8 32 0 
-4 18 0 
-26 1 0 
-13 30 0 
-1 26 0 
-40 4 0 
2 9 14 0 
-13 21 0 
-6 28 0 
-15 29 0 
6 7 0 
-15 33 0 
-6 23 0 
-18 4 0 
-17 22 0 
-9 27 0 
-15 24 0 
-22 3 17 0 
-4 40 0 
-11 38 0 
-33 15 0 
4 13 0 
-30 13 0 
-12 35 0 
-32 8 0 
-3 22 0 
-5 20 0 
7 11 17 0 
-29 14 15 0 
-31 17 0 
-14 29 0 
7 9 0 
-27 9 0 
-3 19 0 
-23 6 0 
-2 36 0 
-11 41 0 
-24 15 0 
-41 4 11 0 
-21 10 13 0 
-12 25 0 
